Gurobi Optimizer version 9.1.2 build v9.1.2rc0 (linux64)
Thread count: 36 physical cores, 72 logical processors, using up to 32 threads
Optimize a model with 12 rows, 57 columns and 590 nonzeros
Model fingerprint: 0xf32eec78
Model has 47 quadratic constraints
Coefficient statistics:
  Matrix range     [2e-05, 3e+00]
  QMatrix range    [1e+00, 1e+00]
  QLMatrix range   [1e+00, 1e+00]
  Objective range  [8e-03, 7e-01]
  Bounds range     [1e+00, 1e+00]
  RHS range        [1e+00, 1e+00]
Presolve removed 9 rows and 0 columns

Continuous model is non-convex -- solving as a MIP.

Presolve removed 9 rows and 0 columns
Presolve time: 0.00s
Presolved: 189 rows, 57 columns, 443 nonzeros
Presolved model has 47 bilinear constraint(s)
Variable types: 57 continuous, 0 integer (0 binary)

Root relaxation: objective -1.743721e+00, 44 iterations, 0.00 seconds

    Nodes    |    Current Node    |     Objective Bounds      |     Work
 Expl Unexpl |  Obj  Depth IntInf | Incumbent    BestBd   Gap | It/Node Time

     0     0   -1.74372    0   38          -   -1.74372      -     -    0s
H    0     0                       0.6147548   -1.74372   384%     -    0s
     0     0   -1.64739    0    1    0.61475   -1.64739   368%     -    0s
H    0     0                      -1.6450460   -1.64739  0.14%     -    0s
     0     0     cutoff    0        -1.64505   -1.64505  0.00%     -    0s

Cutting planes:
  RLT: 25
  BQP: 3

Explored 1 nodes (76 simplex iterations) in 0.01 seconds
Thread count was 32 (of 72 available processors)

Solution count 2: -1.64505 0.614755 
No other solutions better than -1.64505

Optimal solution found (tolerance 1.00e-04)
Best objective -1.645045978473e+00, best bound -1.645045978473e+00, gap 0.0000%

User-callback calls 78, time in user-callback 0.00 sec
Gurobi Optimizer version 9.1.2 build v9.1.2rc0 (linux64)
Thread count: 36 physical cores, 72 logical processors, using up to 32 threads
Optimize a model with 24 rows, 120 columns and 2480 nonzeros
Model fingerprint: 0xe7c3256d
Model has 100 quadratic constraints
Coefficient statistics:
  Matrix range     [8e-06, 4e+00]
  QMatrix range    [1e+00, 1e+00]
  QLMatrix range   [1e+00, 1e+00]
  Objective range  [7e-03, 1e+00]
  Bounds range     [1e+00, 1e+00]
  RHS range        [1e+00, 1e+00]
Presolve removed 17 rows and 0 columns

Continuous model is non-convex -- solving as a MIP.

Presolve removed 17 rows and 0 columns
Presolve time: 0.00s
Presolved: 407 rows, 120 columns, 1232 nonzeros
Presolved model has 100 bilinear constraint(s)
Variable types: 120 continuous, 0 integer (0 binary)

Root relaxation: objective -1.076863e+01, 121 iterations, 0.00 seconds

    Nodes    |    Current Node    |     Objective Bounds      |     Work
 Expl Unexpl |  Obj  Depth IntInf | Incumbent    BestBd   Gap | It/Node Time

     0     0  -10.76863    0  100          -  -10.76863      -     -    0s
H    0     0                       0.9051441  -10.76863  1290%     -    0s
     0     0   -7.60645    0  100    0.90514   -7.60645   940%     -    0s
H    0     0                      -0.0609480   -7.60645      -     -    0s
     0     0   -6.81549    0  100   -0.06095   -6.81549      -     -    0s
H    0     0                      -0.3210131   -6.81549  2023%     -    0s
     0     0   -6.67836    0  100   -0.32101   -6.67836  1980%     -    0s
     0     0   -6.38452    0  100   -0.32101   -6.38452  1889%     -    0s
     0     0   -6.35734    0  100   -0.32101   -6.35734  1880%     -    0s
     0     0   -6.30772    0   90   -0.32101   -6.30772  1865%     -    0s
     0     0   -6.28775    0   90   -0.32101   -6.28775  1859%     -    0s
     0     0   -6.26336    0  100   -0.32101   -6.26336  1851%     -    0s
H    0     0                      -0.5444084   -6.26336  1050%     -    0s
     0     0   -6.26221    0  100   -0.54441   -6.26221  1050%     -    0s
     0     0   -6.25907    0  100   -0.54441   -6.25907  1050%     -    0s
     0     0   -6.25784    0  100   -0.54441   -6.25784  1049%     -    0s
     0     0   -6.25361    0  100   -0.54441   -6.25361  1049%     -    0s
H    0     0                      -1.7390124   -6.25361   260%     -    0s
H    0     0                      -2.6832524   -6.25361   133%     -    0s
H    0     0                      -2.6993141   -6.25361   132%     -    0s
H    0     0                      -2.7276306   -6.25361   129%     -    0s
     0     2   -6.25361    0  100   -2.72763   -6.25361   129%     -    0s
*  971   994              18      -4.9811743   -5.59847  12.4%  27.4    0s
* 1081   908              22      -5.0818461   -5.47293  7.70%  26.2    0s
* 1082   908              22      -5.0818474   -5.47293  7.70%  26.1    0s
* 1422   723              14      -5.0827858   -5.35209  5.30%  22.8    0s
* 1465   723              16      -5.0827929   -5.35209  5.30%  22.3    0s
* 1466   723              16      -5.0827930   -5.35209  5.30%  22.3    0s

Cutting planes:
  RLT: 88
  BQP: 12
  PSD: 21

Explored 1852 nodes (33668 simplex iterations) in 0.66 seconds
Thread count was 32 (of 72 available processors)

Solution count 10: -5.08279 -5.08279 -5.08185 ... -0.544408
No other solutions better than -5.08279

Optimal solution found (tolerance 1.00e-04)
Best objective -5.082793009570e+00, best bound -5.082793009570e+00, gap 0.0000%

User-callback calls 3967, time in user-callback 0.00 sec



objective value: -5.082793009570151
objective bound: -5.082793009570151
x_opt: [0.0, 1.0, 1.0, 1.0, 1.0, 0.0, 0.0, 0.0, 0.2794978742128173, 1.0, 0.0, 0.22515607155294048, 1.0, 1.0, 1.0, 0.0, 0.0, 0.0, 0.05310076721327926, 0.4949207880657806]
GUROBI solution time: 0.6563830375671387




